
  32    1
  10

   0   0   7 2 3 4 5 6 7 8 
  10   1   5 14 12 11 10 9 
   1   1   6 31 30 17 14 13 9 
   3   2   4 31 17 11 9 
   4   4   6 30 18 17 15 14 9 
   9   3   3 20 16 11 
   2   1   6 31 30 22 20 19 13 
  10   2   5 30 23 19 16 12 
   5   2   5 23 22 20 19 16 
   2   2   5 23 22 20 18 16 
   1   2   4 30 22 19 13 
   7   5   1 13 
   8   1   3 28 27 18 
   7   2   2 28 16 
   4   1   2 28 16 
   1   1   4 29 27 26 21 
   6   1   3 27 21 20 
   2   2   3 29 26 21 
   9   2   3 27 26 21 
   4   3   3 28 25 24 
   6   2   2 25 24 
   8   3   1 26 
   1   2   1 24 
   2   3   1 32
   7   2   1 32
   9   2   1 32
   7   1   1 32
  10   3   1 32
   3   1   1 32
   8   2   1 32
   7   1   1 32
   0   0   0 
